4 
5  30 45 
6  00 15 30 45 
7  00 15 30 45 
8  00 15 30 45 
9  00 15 30 45 59 
10  14 29 44 59 
11  14 29 44 59 
12  14 29 44 59 
13  14 30 45 
14  00 15 30 45 
15  00 17 32 47 
16  02 17 32 47 
17  02 17 32 47 
18  02 17 32 47 
19  02 16 30 45 
20  00 15 30 45 
21  00 15 30 45 
22  00 15 32 47 
23  02 19 
0 
